32	0

0	1	2
3	1	3
10	2	4	6
4	2	5	7
9	2	8	11
10	2	8	11
9	2	8	11
2	2	9	10
7	3	12	13	14
8	3	14	15	16
9	3	12	13	14
6	1	15
5	2	15	16
8	2	17	18
3	2	17	18
4	2	17	18
8	2	20	22
6	1	19
2	2	20	22
1	1	21
1	4	23	24	25	26
2	4	23	24	25	26
7	1	28
6	1	27
6	1	27
4	1	27
1	1	28
3	3	29	30	31
7	1	32
10	1	32
10	1	32
0	0
